instances/shortest_path/discrete/shortest_path_3_8.mps
* Signature: 0xf9a0f44b955a6a9b
NAME nohadani_3_8
ROWS
 N  OBJ
 E  flow_cons_inner_nodes[0]
 E  flow_cons_source
 E  flow_cons_target
 L  primal_lower
 L  mccormick1[0,1]
 L  mccormick1[0,2]
 L  mccormick1[1,0]
 L  mccormick1[1,2]
 L  mccormick1[2,0]
 L  mccormick1[2,1]
 L  mccormick2[0,1]
 L  mccormick2[0,2]
 L  mccormick2[1,0]
 L  mccormick2[1,2]
 L  mccormick2[2,0]
 L  mccormick2[2,1]
 G  mccormick3[0,1]
 G  mccormick3[0,2]
 G  mccormick3[1,0]
 G  mccormick3[1,2]
 G  mccormick3[2,0]
 G  mccormick3[2,1]
COLUMNS
    MARKER    'MARKER'                 'INTORG'
    y[0,1]    OBJ       5.2354560450833695e+01
    y[0,1]    flow_cons_inner_nodes[0]  -1
    y[0,1]    flow_cons_source  -1
    y[0,1]    mccormick2[0,1]  -1
    y[0,1]    mccormick3[0,1]  -1
    y[0,2]    OBJ       5.3712196007983138e+01
    y[0,2]    flow_cons_inner_nodes[0]  -1
    y[0,2]    flow_cons_target  1
    y[0,2]    mccormick2[0,2]  -1
    y[0,2]    mccormick3[0,2]  -1
    y[1,0]    OBJ       5.2354560450833695e+01
    y[1,0]    flow_cons_inner_nodes[0]  1
    y[1,0]    flow_cons_source  1
    y[1,0]    mccormick2[1,0]  -1
    y[1,0]    mccormick3[1,0]  -1
    y[1,2]    OBJ       1.0599056561788883e+02
    y[1,2]    flow_cons_source  1
    y[1,2]    flow_cons_target  1
    y[1,2]    mccormick2[1,2]  -1
    y[1,2]    mccormick3[1,2]  -1
    y[2,0]    OBJ       5.3712196007983138e+01
    y[2,0]    flow_cons_inner_nodes[0]  1
    y[2,0]    flow_cons_target  -1
    y[2,0]    mccormick2[2,0]  -1
    y[2,0]    mccormick3[2,0]  -1
    y[2,1]    OBJ       1.0599056561788883e+02
    y[2,1]    flow_cons_source  -1
    y[2,1]    flow_cons_target  -1
    y[2,1]    mccormick2[2,1]  -1
    y[2,1]    mccormick3[2,1]  -1
    x[0,1]    OBJ       1
    x[0,1]    primal_lower  4.5905457405462187e+00
    x[0,2]    OBJ       1
    x[0,2]    primal_lower  9.8085680662641543e+00
    x[1,0]    OBJ       1
    x[1,0]    primal_lower  1.2056430924732753e+01
    x[1,2]    OBJ       1
    x[1,2]    primal_lower  5.8631490451575026e+00
    x[2,0]    OBJ       1
    x[2,0]    primal_lower  1.2583040046939489e+01
    x[2,1]    OBJ       1
    x[2,1]    primal_lower  8.49666993412952
    u[0,1]    primal_lower  83
    u[0,1]    mccormick1[0,1]  -1
    u[0,1]    mccormick3[0,1]  -1
    u[0,2]    primal_lower  4
    u[0,2]    mccormick1[0,2]  -1
    u[0,2]    mccormick3[0,2]  -1
    u[1,0]    primal_lower  6
    u[1,0]    mccormick1[1,0]  -1
    u[1,0]    mccormick3[1,0]  -1
    u[1,2]    primal_lower  35
    u[1,2]    mccormick1[1,2]  -1
    u[1,2]    mccormick3[1,2]  -1
    u[2,0]    primal_lower  64
    u[2,0]    mccormick1[2,0]  -1
    u[2,0]    mccormick3[2,0]  -1
    u[2,1]    primal_lower  45
    u[2,1]    mccormick1[2,1]  -1
    u[2,1]    mccormick3[2,1]  -1
    r[0,1]    OBJ       5.23545604508337
    r[0,1]    mccormick1[0,1]  1
    r[0,1]    mccormick2[0,1]  1
    r[0,1]    mccormick3[0,1]  1
    r[0,2]    OBJ       5.3712196007983142e+00
    r[0,2]    mccormick1[0,2]  1
    r[0,2]    mccormick2[0,2]  1
    r[0,2]    mccormick3[0,2]  1
    r[1,0]    OBJ       5.23545604508337
    r[1,0]    mccormick1[1,0]  1
    r[1,0]    mccormick2[1,0]  1
    r[1,0]    mccormick3[1,0]  1
    r[1,2]    OBJ       1.0599056561788885e+01
    r[1,2]    mccormick1[1,2]  1
    r[1,2]    mccormick2[1,2]  1
    r[1,2]    mccormick3[1,2]  1
    r[2,0]    OBJ       5.3712196007983142e+00
    r[2,0]    mccormick1[2,0]  1
    r[2,0]    mccormick2[2,0]  1
    r[2,0]    mccormick3[2,0]  1
    r[2,1]    OBJ       1.0599056561788885e+01
    r[2,1]    mccormick1[2,1]  1
    r[2,1]    mccormick2[2,1]  1
    r[2,1]    mccormick3[2,1]  1
    MARKER    'MARKER'                 'INTEND'
RHS
    RHS1      flow_cons_source  1
    RHS1      flow_cons_target  1
    RHS1      primal_lower  83
    RHS1      mccormick3[0,1]  -1
    RHS1      mccormick3[0,2]  -1
    RHS1      mccormick3[1,0]  -1
    RHS1      mccormick3[1,2]  -1
    RHS1      mccormick3[2,0]  -1
    RHS1      mccormick3[2,1]  -1
BOUNDS
 BV BND1      y[0,1]  
 BV BND1      y[0,2]  
 BV BND1      y[1,0]  
 BV BND1      y[1,2]  
 BV BND1      y[2,0]  
 BV BND1      y[2,1]  
 BV BND1      x[0,1]  
 BV BND1      x[0,2]  
 BV BND1      x[1,0]  
 BV BND1      x[1,2]  
 BV BND1      x[2,0]  
 BV BND1      x[2,1]  
 BV BND1      u[0,1]  
 BV BND1      u[0,2]  
 BV BND1      u[1,0]  
 BV BND1      u[1,2]  
 BV BND1      u[2,0]  
 BV BND1      u[2,1]  
 BV BND1      r[0,1]  
 BV BND1      r[0,2]  
 BV BND1      r[1,0]  
 BV BND1      r[1,2]  
 BV BND1      r[2,0]  
 BV BND1      r[2,1]  
ENDATA
