instances/shortest_path/discrete/shortest_path_3_8.kp
39093
83

[4.590545740546219 9.808568066264154 12.056430924732753 5.863149045157503 12.58304004693949 8.49666993412952]

[83 4 6 35 64 45]
